meses = 6;
veg = 2;
anv = 3;
precios = [| 110,  120,  130,  110,  115
           | 130,  130,  110,  90,   115
           | 110,  140,  130,  100,  95
           | 120,  110,  120,  120,  125
           | 100,  120,  150,  110,  105
           |  90,  100,  140,  80,   135
%           |  95,  120,  130,  85,   130
%           | 110,  130,  150,  100,  125
%           | 100,  110,  130,  110,  115
%           | 130,  140,  140,  100,  135
%           | 100,  110,  120,  90,   100
%           | 120,  100,  110,  120,  125  
           |];

VALOR = 400;

MAXV = 200;
MAXN = 250;

MCAP = 1000;

CA = 5;

MinD = 3;
MaxD = 6;

durezas = [8.8, 6.1, 2.0, 4.2, 5.0];

inicio = [200, 200, 200, 200, 200];

MinB = 7000;

K = 2;
T = 201;